networks/zoo_88_757/zoo_88_757.txt
Number of groups: 56
Flow 11: {10 29} {29 17} {17 61} 
Flow 12: {8 18} {18 62} 
Flow 13: {4 19} {19 63} 
Flow 16: {41 26} {26 70} 
Flow 18: {29 73} 
Flow 20: {1 41} {41 32} {32 76} 
Flow 35: {2 41} {41 35} {35 79} 
Flow 63: {41 33} {33 77} 
Flow 76: {5 8} {8 10} {10 54} 
Flow 89: {6 8} {8 9} {9 53} 
Flow 133: {7 8} {8 24} {24 68} 
Flow 162: {41 13} {13 57} 
Flow 163: {41 14} {14 58} 
Flow 176: {44 27} {27 71} 
Flow 188: {40 39} {39 83} 
Flow 196: {9 8} {8 12} {12 56} 
Flow 217: {1 42} {42 21} {21 65} 
Flow 220: {10 8} {8 25} {25 69} 
Flow 250: {11 10} {10 30} {30 74} 
Flow 261: {12 8} {8 41} {41 42} 
Flow 262: {13 41} {41 4} 
Flow 275: {14 41} {41 40} {40 84} 
Flow 282: {15 40} {40 42} {42 86} 
Flow 283: {16 1} {1 4} 
Flow 290: {17 29} {29 10} 
Flow 296: {18 8} {8 7} {7 51} 
Flow 323: {19 4} {4 41} {41 38} {38 82} 
Flow 332: {20 8} {8 5} {5 49} 
Flow 342: {7 1} {1 16} {16 60} 
Flow 359: {8 44} {44 38} {38 37} {37 81} 
Flow 368: {21 42} {42 1} {1 7} 
Flow 375: {22 4} {4 48} 
Flow 386: {23 6} {6 7} {7 10} {10 11} {11 55} 
Flow 400: {24 8} 
Flow 405: {25 8} {8 52} 
Flow 411: {26 41} 
Flow 416: {27 44} {44 8} {8 20} {20 64} 
Flow 422: {28 41} {41 2} {2 46} 
Flow 449: {41 36} {36 80} 
Flow 467: {30 10} {10 7} {7 6} {6 50} 
Flow 485: {31 4} {4 1} 
Flow 487: {32 41} {41 8} 
Flow 490: {33 41} 
Flow 495: {34 41} 
Flow 534: {35 41} {41 43} {43 87} 
Flow 536: {36 41} {41 1} {1 45} 
Flow 563: {37 38} {38 41} {41 85} 
Flow 593: {38 44} {44 88} 
Flow 600: {39 40} {40 41} {41 28} {28 72} 
Flow 630: {4 31} {31 75} 
Flow 664: {8 6} {6 23} {23 67} 
Flow 686: {42 41} {41 44} {44 3} {3 47} 
Flow 696: {42 40} {40 15} {15 59} 
Flow 701: {4 22} {22 66} 
Flow 719: {43 41} 
Flow 749: {44 41} {41 34} {34 78} 
Time taken running everything: 6 seconds
