networks/zoo_88_757/zoo_88_757.sol
<?xml version = "1.0" encoding="UTF-8" standalone="yes"?>
<CPLEXSolution version="1.2">
 <header
   problemName="networks/zoo_88_757/zoo_88_757.lp"
   solutionName="incumbent"
   solutionIndex="-1"
   objectiveValue="56"
   solutionTypeValue="3"
   solutionTypeString="primal"
   solutionStatusValue="101"
   solutionStatusString="integer optimal solution"
   solutionMethodString="mip"
   primalFeasible="1"
   dualFeasible="1"
   MIPNodes="0"
   MIPIterations="9546"
   writeLevel="3"/>
 <quality
   epInt="1.0000000000000001e-05"
   epRHS="9.9999999999999995e-07"
   maxIntInfeas="0"
   maxPrimalInfeas="2.000000165480742e-09"
   maxX="4"
   maxSlack="10"/>
 <variables>
  <variable name="Y(11,17)" index="896" value="1"/>
  <variable name="Y(12,18)" index="985" value="1"/>
  <variable name="Y(13,19)" index="1074" value="1"/>
  <variable name="Y(16,26)" index="1345" value="1"/>
  <variable name="Y(18,29)" index="1524" value="1"/>
  <variable name="Y(20,32)" index="1703" value="1"/>
  <variable name="Y(35,35)" index="3026" value="1"/>
  <variable name="Y(63,33)" index="5488" value="1"/>
  <variable name="Y(76,10)" index="6609" value="1"/>
  <variable name="Y(89,9)" index="7752" value="1"/>
  <variable name="Y(133,24)" index="11639" value="1"/>
  <variable name="Y(162,13)" index="14180" value="1"/>
  <variable name="Y(163,14)" index="14269" value="1"/>
  <variable name="Y(176,27)" index="15426" value="1"/>
  <variable name="Y(188,39)" index="16494" value="1"/>
  <variable name="Y(196,12)" index="17171" value="1"/>
  <variable name="Y(217,21)" index="19028" value="1"/>
  <variable name="Y(220,25)" index="19296" value="1"/>
  <variable name="Y(250,30)" index="21941" value="1"/>
  <variable name="Y(261,41)" index="22920" value="1"/>
  <variable name="Y(262,41)" index="23008" value="1"/>
  <variable name="Y(275,40)" index="24151" value="1"/>
  <variable name="Y(282,42)" index="24769" value="1"/>
  <variable name="Y(283,1)" index="24816" value="1"/>
  <variable name="Y(290,29)" index="25460" value="1"/>
  <variable name="Y(296,7)" index="25966" value="1"/>
  <variable name="Y(323,38)" index="28373" value="1"/>
  <variable name="Y(332,5)" index="29132" value="1"/>
  <variable name="Y(342,16)" index="30023" value="1"/>
  <variable name="Y(359,37)" index="31540" value="1"/>
  <variable name="Y(368,1)" index="32296" value="1"/>
  <variable name="Y(375,4)" index="32915" value="1"/>
  <variable name="Y(386,11)" index="33890" value="1"/>
  <variable name="Y(400,24)" index="35135" value="1"/>
  <variable name="Y(405,8)" index="35559" value="1"/>
  <variable name="Y(411,26)" index="36105" value="1"/>
  <variable name="Y(416,20)" index="36539" value="1"/>
  <variable name="Y(422,2)" index="37049" value="1"/>
  <variable name="Y(449,36)" index="39459" value="1"/>
  <variable name="Y(467,6)" index="41013" value="1"/>
  <variable name="Y(485,4)" index="42595" value="1"/>
  <variable name="Y(487,41)" index="42808" value="1"/>
  <variable name="Y(490,33)" index="43064" value="1"/>
  <variable name="Y(495,34)" index="43505" value="1"/>
  <variable name="Y(534,43)" index="46946" value="1"/>
  <variable name="Y(536,1)" index="47080" value="1"/>
  <variable name="Y(563,41)" index="49496" value="1"/>
  <variable name="Y(593,44)" index="52139" value="1"/>
  <variable name="Y(600,28)" index="52739" value="1"/>
  <variable name="Y(630,31)" index="55382" value="1"/>
  <variable name="Y(664,23)" index="58366" value="1"/>
  <variable name="Y(686,3)" index="60282" value="1"/>
  <variable name="Y(696,15)" index="61174" value="1"/>
  <variable name="Y(701,22)" index="61621" value="1"/>
  <variable name="Y(719,43)" index="63226" value="1"/>
  <variable name="Y(749,34)" index="65857" value="1"/>
  <variable name="X(1,4,283)" index="66898" value="1"/>
  <variable name="X(1,7,368)" index="67740" value="1"/>
  <variable name="X(1,16,342)" index="68471" value="1"/>
  <variable name="X(1,41,20)" index="68906" value="1"/>
  <variable name="X(1,42,217)" index="69860" value="1"/>
  <variable name="X(1,45,536)" index="70936" value="1"/>
  <variable name="X(2,41,35)" index="71192" value="1"/>
  <variable name="X(2,46,422)" index="72336" value="1"/>
  <variable name="X(3,47,686)" index="73357" value="1"/>
  <variable name="X(4,1,485)" index="73913" value="1"/>
  <variable name="X(4,19,13)" index="74198" value="1"/>
  <variable name="X(4,22,701)" index="75643" value="1"/>
  <variable name="X(4,31,630)" index="76329" value="1"/>
  <variable name="X(4,41,323)" index="76779" value="1"/>
  <variable name="X(4,48,375)" index="77588" value="1"/>
  <variable name="X(5,8,76)" index="78046" value="1"/>
  <variable name="X(5,49,332)" index="79059" value="1"/>
  <variable name="X(6,7,386)" index="79870" value="1"/>
  <variable name="X(6,8,89)" index="80330" value="1"/>
  <variable name="X(6,23,664)" index="81662" value="1"/>
  <variable name="X(6,50,467)" index="82222" value="1"/>
  <variable name="X(7,1,342)" index="82854" value="1"/>
  <variable name="X(7,6,467)" index="83736" value="1"/>
  <variable name="X(7,8,133)" index="84159" value="1"/>
  <variable name="X(7,10,386)" index="85169" value="1"/>
  <variable name="X(7,51,296)" index="85836" value="1"/>
  <variable name="X(8,5,332)" index="86629" value="1"/>
  <variable name="X(8,6,664)" index="87718" value="1"/>
  <variable name="X(8,7,296)" index="88107" value="1"/>
  <variable name="X(8,9,89)" index="88657" value="1"/>
  <variable name="X(8,10,76)" index="89401" value="1"/>
  <variable name="X(8,12,196)" index="90278" value="1"/>
  <variable name="X(8,18,12)" index="90851" value="1"/>
  <variable name="X(8,20,416)" index="92012" value="1"/>
  <variable name="X(8,24,133)" index="92486" value="1"/>
  <variable name="X(8,25,220)" index="93330" value="1"/>
  <variable name="X(8,41,261)" index="94128" value="1"/>
  <variable name="X(8,44,359)" index="94983" value="1"/>
  <variable name="X(8,52,405)" index="95786" value="1"/>
  <variable name="X(9,8,196)" index="96334" value="1"/>
  <variable name="X(9,53,89)" index="96984" value="1"/>
  <variable name="X(10,7,467)" index="98119" value="1"/>
  <variable name="X(10,8,220)" index="98629" value="1"/>
  <variable name="X(10,11,386)" index="99552" value="1"/>
  <variable name="X(10,29,11)" index="99934" value="1"/>
  <variable name="X(10,30,250)" index="100930" value="1"/>
  <variable name="X(10,54,76)" index="101513" value="1"/>
  <variable name="X(11,10,250)" index="102444" value="1"/>
  <variable name="X(11,55,386)" index="103337" value="1"/>
  <variable name="X(12,8,261)" index="103969" value="1"/>
  <variable name="X(12,56,196)" index="104661" value="1"/>
  <variable name="X(13,41,262)" index="105484" value="1"/>
  <variable name="X(13,57,162)" index="106141" value="1"/>
  <variable name="X(14,41,275)" index="107011" value="1"/>
  <variable name="X(14,58,163)" index="107656" value="1"/>
  <variable name="X(15,40,282)" index="108532" value="1"/>
  <variable name="X(15,59,696)" index="109703" value="1"/>
  <variable name="X(16,1,283)" index="110047" value="1"/>
  <variable name="X(16,60,342)" index="110863" value="1"/>
  <variable name="X(17,29,290)" index="111568" value="1"/>
  <variable name="X(17,61,11)" index="112046" value="1"/>
  <variable name="X(18,8,296)" index="113088" value="1"/>
  <variable name="X(18,62,12)" index="113561" value="1"/>
  <variable name="X(19,4,323)" index="114629" value="1"/>
  <variable name="X(19,63,13)" index="115076" value="1"/>
  <variable name="X(20,8,332)" index="116152" value="1"/>
  <variable name="X(20,64,416)" index="116993" value="1"/>
  <variable name="X(21,42,368)" index="117702" value="1"/>
  <variable name="X(21,65,217)" index="118308" value="1"/>
  <variable name="X(22,4,375)" index="119223" value="1"/>
  <variable name="X(22,66,701)" index="120306" value="1"/>
  <variable name="X(23,6,386)" index="120748" value="1"/>
  <variable name="X(23,67,664)" index="121783" value="1"/>
  <variable name="X(24,8,400)" index="122276" value="1"/>
  <variable name="X(24,68,133)" index="122766" value="1"/>
  <variable name="X(25,8,405)" index="123795" value="1"/>
  <variable name="X(25,69,220)" index="124367" value="1"/>
  <variable name="X(26,41,411)" index="125315" value="1"/>
  <variable name="X(26,70,16)" index="125677" value="1"/>
  <variable name="X(27,44,416)" index="126834" value="1"/>
  <variable name="X(27,71,176)" index="127351" value="1"/>
  <variable name="X(28,41,422)" index="128354" value="1"/>
  <variable name="X(28,72,600)" index="129289" value="1"/>
  <variable name="X(29,10,290)" index="129736" value="1"/>
  <variable name="X(29,17,11)" index="130214" value="1"/>
  <variable name="X(29,73,18)" index="130978" value="1"/>
  <variable name="X(30,10,467)" index="132184" value="1"/>
  <variable name="X(30,74,250)" index="132724" value="1"/>
  <variable name="X(31,4,485)" index="133716" value="1"/>
  <variable name="X(31,75,630)" index="134618" value="1"/>
  <variable name="X(32,41,487)" index="135232" value="1"/>
  <variable name="X(32,76,20)" index="135522" value="1"/>
  <variable name="X(33,41,490)" index="136749" value="1"/>
  <variable name="X(33,77,63)" index="137079" value="1"/>
  <variable name="X(34,41,495)" index="138268" value="1"/>
  <variable name="X(34,78,749)" index="139279" value="1"/>
  <variable name="X(35,41,534)" index="139821" value="1"/>
  <variable name="X(35,79,35)" index="140079" value="1"/>
  <variable name="X(36,41,536)" index="141337" value="1"/>
  <variable name="X(36,80,449)" index="142007" value="1"/>
  <variable name="X(37,38,563)" index="142878" value="1"/>
  <variable name="X(37,81,359)" index="143431" value="1"/>
  <variable name="X(38,37,359)" index="144188" value="1"/>
  <variable name="X(38,41,563)" index="145149" value="1"/>
  <variable name="X(38,44,593)" index="145936" value="1"/>
  <variable name="X(38,82,323)" index="146423" value="1"/>
  <variable name="X(39,40,600)" index="147457" value="1"/>
  <variable name="X(39,83,188)" index="147802" value="1"/>
  <variable name="X(40,15,696)" index="149067" value="1"/>
  <variable name="X(40,39,188)" index="149316" value="1"/>
  <variable name="X(40,41,600)" index="150485" value="1"/>
  <variable name="X(40,42,282)" index="150924" value="1"/>
  <variable name="X(40,84,275)" index="151674" value="1"/>
  <variable name="X(41,1,536)" index="152692" value="1"/>
  <variable name="X(41,2,422)" index="153335" value="1"/>
  <variable name="X(41,4,262)" index="153932" value="1"/>
  <variable name="X(41,8,487)" index="154914" value="1"/>
  <variable name="X(41,13,162)" index="155346" value="1"/>
  <variable name="X(41,14,163)" index="156104" value="1"/>
  <variable name="X(41,26,16)" index="156714" value="1"/>
  <variable name="X(41,28,600)" index="158055" value="1"/>
  <variable name="X(41,32,20)" index="158232" value="1"/>
  <variable name="X(41,33,63)" index="159032" value="1"/>
  <variable name="X(41,34,749)" index="160475" value="1"/>
  <variable name="X(41,35,35)" index="160518" value="1"/>
  <variable name="X(41,36,449)" index="161689" value="1"/>
  <variable name="X(41,38,323)" index="162320" value="1"/>
  <variable name="X(41,40,275)" index="163029" value="1"/>
  <variable name="X(41,42,261)" index="163772" value="1"/>
  <variable name="X(41,43,534)" index="164802" value="1"/>
  <variable name="X(41,44,686)" index="165711" value="1"/>
  <variable name="X(41,85,563)" index="166345" value="1"/>
  <variable name="X(42,1,368)" index="166907" value="1"/>
  <variable name="X(42,21,217)" index="167513" value="1"/>
  <variable name="X(42,40,696)" index="168749" value="1"/>
  <variable name="X(42,41,686)" index="169496" value="1"/>
  <variable name="X(42,86,282)" index="169849" value="1"/>
  <variable name="X(43,41,719)" index="171043" value="1"/>
  <variable name="X(43,87,534)" index="171615" value="1"/>
  <variable name="X(44,3,686)" index="172524" value="1"/>
  <variable name="X(44,8,416)" index="173011" value="1"/>
  <variable name="X(44,27,176)" index="173528" value="1"/>
  <variable name="X(44,38,359)" index="174468" value="1"/>
  <variable name="X(44,41,749)" index="175615" value="1"/>
  <variable name="X(44,88,593)" index="176216" value="1"/>
  <variable name="C(11,29)" index="176417" value="1"/>
  <variable name="C(11,17)" index="176418" value="2"/>
  <variable name="C(12,18)" index="176422" value="1"/>
  <variable name="C(13,19)" index="176425" value="1"/>
  <variable name="C(16,26)" index="176436" value="1"/>
  <variable name="C(20,41)" index="176449" value="1"/>
  <variable name="C(20,32)" index="176450" value="2"/>
  <variable name="C(35,41)" index="176496" value="1"/>
  <variable name="C(35,35)" index="176497" value="2"/>
  <variable name="C(63,33)" index="176595" value="1"/>
  <variable name="C(76,8)" index="176633" value="1"/>
  <variable name="C(76,10)" index="176634" value="2"/>
  <variable name="C(89,8)" index="176676" value="1"/>
  <variable name="C(89,9)" index="176677" value="2"/>
  <variable name="C(133,7)" index="176835" value="2"/>
  <variable name="C(133,8)" index="176836" value="3"/>
  <variable name="C(133,24)" index="176837" value="4"/>
  <variable name="C(162,13)" index="176931" value="1"/>
  <variable name="C(163,14)" index="176934" value="1"/>
  <variable name="C(176,27)" index="176975" value="1"/>
  <variable name="C(188,39)" index="177014" value="1"/>
  <variable name="C(196,8)" index="177035" value="1"/>
  <variable name="C(196,12)" index="177036" value="2"/>
  <variable name="C(217,42)" index="177108" value="1"/>
  <variable name="C(217,21)" index="177109" value="2"/>
  <variable name="C(220,8)" index="177119" value="1"/>
  <variable name="C(220,25)" index="177120" value="2"/>
  <variable name="C(250,10)" index="177233" value="1"/>
  <variable name="C(250,30)" index="177234" value="2"/>
  <variable name="C(261,8)" index="177279" value="1"/>
  <variable name="C(261,41)" index="177280" value="2"/>
  <variable name="C(262,41)" index="177283" value="1"/>
  <variable name="C(275,41)" index="177327" value="1"/>
  <variable name="C(275,40)" index="177328" value="2"/>
  <variable name="C(282,40)" index="177352" value="1"/>
  <variable name="C(282,42)" index="177353" value="2"/>
  <variable name="C(283,1)" index="177355" value="1"/>
  <variable name="C(290,29)" index="177384" value="1"/>
  <variable name="C(296,8)" index="177412" value="1"/>
  <variable name="C(296,7)" index="177413" value="2"/>
  <variable name="C(323,4)" index="177518" value="1"/>
  <variable name="C(323,41)" index="177519" value="2"/>
  <variable name="C(323,38)" index="177520" value="3"/>
  <variable name="C(332,8)" index="177553" value="1"/>
  <variable name="C(332,5)" index="177554" value="2"/>
  <variable name="C(342,1)" index="177588" value="1"/>
  <variable name="C(342,16)" index="177589" value="2"/>
  <variable name="C(359,44)" index="177657" value="1.0000000020000002"/>
  <variable name="C(359,38)" index="177658" value="2.0000000020000002"/>
  <variable name="C(359,37)" index="177659" value="3.0000000030000002"/>
  <variable name="C(368,42)" index="177691" value="1"/>
  <variable name="C(368,1)" index="177692" value="2"/>
  <variable name="C(375,4)" index="177718" value="1"/>
  <variable name="C(386,6)" index="177763" value="1"/>
  <variable name="C(386,7)" index="177764" value="2"/>
  <variable name="C(386,10)" index="177765" value="3"/>
  <variable name="C(386,11)" index="177766" value="4"/>
  <variable name="C(405,8)" index="177839" value="1"/>
  <variable name="C(416,44)" index="177876" value="1"/>
  <variable name="C(416,8)" index="177877" value="2"/>
  <variable name="C(416,20)" index="177878" value="3"/>
  <variable name="C(422,41)" index="177898" value="1"/>
  <variable name="C(422,2)" index="177899" value="2"/>
  <variable name="C(449,36)" index="178004" value="1"/>
  <variable name="C(467,10)" index="178069" value="1"/>
  <variable name="C(467,7)" index="178070" value="2"/>
  <variable name="C(467,6)" index="178071" value="3"/>
  <variable name="C(485,4)" index="178142" value="1"/>
  <variable name="C(487,41)" index="178149" value="1"/>
  <variable name="C(534,41)" index="178319" value="1"/>
  <variable name="C(534,43)" index="178320" value="2"/>
  <variable name="C(536,41)" index="178325" value="1"/>
  <variable name="C(536,1)" index="178326" value="2"/>
  <variable name="C(563,38)" index="178428" value="1"/>
  <variable name="C(563,41)" index="178429" value="2"/>
  <variable name="C(593,44)" index="178536" value="1"/>
  <variable name="C(600,40)" index="178567" value="1"/>
  <variable name="C(600,41)" index="178568" value="2"/>
  <variable name="C(600,28)" index="178569" value="3"/>
  <variable name="C(630,31)" index="178684" value="1"/>
  <variable name="C(664,6)" index="178782" value="1"/>
  <variable name="C(664,23)" index="178783" value="2"/>
  <variable name="C(686,41)" index="178837" value="1"/>
  <variable name="C(686,44)" index="178838" value="2"/>
  <variable name="C(686,3)" index="178839" value="3"/>
  <variable name="C(696,40)" index="178875" value="1"/>
  <variable name="C(696,15)" index="178876" value="2"/>
  <variable name="C(701,22)" index="178898" value="1"/>
  <variable name="C(749,41)" index="179054" value="1"/>
  <variable name="C(749,34)" index="179055" value="2"/>
 </variables>
</CPLEXSolution>
